15713 51910 47174 87086 95477 51169 97007 78679 68648 62198 57909
10394 10710 54688 37782 8435 69136 27417 8188 89782 32620 53886
48333 22735 26384 38129 65832 30648 87304 57170 32070 1088 39879
4339 40590 67902 37450 9165 47159 70656 48338 6832 56029 78663
40379 42523 85458 51525 57139 34574 9377 67250 48096 25421 94819
38446 22790 84497 67680 46362 30198 36464 8042 5336 84360 47088
2356 93598 9274 44198 66899 52010 78052 40982 37909 39661 27784
30087 39965 52923 59998 770 83080 4107 67745 13057 82125 18143
15032 67733 64765 11491 64514 54233 5661 77314 99573 34437 67445
63820 93205 950 97861 54539 76900 48520 59733 85057 21450 22171
22121 3980 25547 56842 56317 60024 46795 69263 55422 30577 2017
